NPROCS=0
This instance is clustered!
Gurobi Optimizer version 9.0.0 build v9.0.0rc2 (linux64)
Optimize a model with 24 rows, 145 columns and 288 nonzeros
Model fingerprint: 0x61024a4d
Variable types: 1 continuous, 144 integer (144 binary)
Coefficient statistics:
  Matrix range     [1e+00, 1e+00]
  Objective range  [1e+00, 1e+02]
  Bounds range     [1e+00, 1e+00]
  RHS range        [1e+00, 1e+00]
Presolve removed 2 rows and 33 columns
Presolve time: 0.00s
Presolved: 22 rows, 112 columns, 222 nonzeros
Variable types: 1 continuous, 111 integer (111 binary)

Root relaxation: objective 2.242189e+02, 24 iterations, 0.00 seconds

    Nodes    |    Current Node    |     Objective Bounds      |     Work
 Expl Unexpl |  Obj  Depth IntInf | Incumbent    BestBd   Gap | It/Node Time

     0     0  226.09410    0   11          -  226.09410      -     -    0s
H    0     0                     252.2562927  226.09410  10.4%     -    0s
     0     0  227.69133    0   12  252.25629  227.69133  9.74%     -    0s
     0     0  227.69133    0   11  252.25629  227.69133  9.74%     -    0s
     0     0  227.69133    0   12  252.25629  227.69133  9.74%     -    0s
     0     0  227.96081    0   19  252.25629  227.96081  9.63%     -    0s
     0     0  227.96081    0   15  252.25629  227.96081  9.63%     -    0s
     0     0  227.96081    0   15  252.25629  227.96081  9.63%     -    0s
     0     2  227.96081    0   15  252.25629  227.96081  9.63%     -    0s

Cutting planes:
  Gomory: 1
  MIR: 1
  Zero half: 2
  Lazy constraints: 42

Explored 107 nodes (331 simplex iterations) in 0.06 seconds
Thread count was 12 (of 12 available processors)

Solution count 1: 252.256 

Optimal solution found (tolerance 1.00e-04)
Best objective 2.522562926747e+02, best bound 2.522562926747e+02, gap 0.0000%

User-callback calls 368, time in user-callback 0.00 sec
/projects/academic/josewalt/caigao/RRARP_BD/BendersDecomp/ret/model_outs/n_10_e_3_algo_2.out
 =====>>>>> Solution is written to file in <../ret/model_outs> !!!
===>> All Done!
